NAME : amz2126.73032_73032.tour
COMMENT : Cost = 73032_73032
COMMENT : Found by LKH-AMZ [Keld Helsgaun] Sun May 11 13:42:29 2025
COMMENT : TW viol.: 0 #: 0
TYPE : TOUR
DIMENSION : 96
TOUR_SECTION
80
79
50
92
21
75
40
87
17
68
85
59
56
71
3
33
15
38
57
8
84
78
55
53
9
43
5
88
64
11
19
51
26
73
70
72
58
49
18
2
4
6
54
67
61
37
7
14
94
45
82
86
25
28
77
36
42
91
30
47
48
62
22
41
13
95
52
81
10
46
12
69
66
27
63
96
44
39
34
60
16
23
90
89
65
24
1
20
29
93
31
76
32
83
74
35
-1
EOF
